c colouring generated by benchmark framework
p edge 206 3540
v 1 9
v 2 21
v 3 28
v 4 19
v 5 23
v 6 2
v 7 1
v 8 16
v 9 17
v 10 18
v 11 0
v 12 11
v 13 26
v 14 29
v 15 3
v 16 4
v 17 5
v 18 30
v 19 13
v 20 7
v 21 3
v 22 19
v 23 2
v 24 11
v 25 21
v 26 16
v 27 4
v 28 1
v 29 9
v 30 12
v 31 23
v 32 0
v 33 22
v 34 28
v 35 17
v 36 6
v 37 25
v 38 24
v 39 10
v 40 3
v 41 10
v 42 0
v 43 8
v 44 14
v 45 20
v 46 19
v 47 13
v 48 14
v 49 25
v 50 30
v 51 15
v 52 0
v 53 23
v 54 7
v 55 13
v 56 22
v 57 14
v 58 10
v 59 12
v 60 13
v 61 12
v 62 24
v 63 6
v 64 20
v 65 6
v 66 6
v 67 6
v 68 10
v 69 8
v 70 6
v 71 6
v 72 6
v 73 6
v 74 6
v 75 7
v 76 6
v 77 6
v 78 6
v 79 27
v 80 6
v 81 14
v 82 6
v 83 15
v 84 18
v 85 7
v 86 12
v 87 6
v 88 13
v 89 6
v 90 7
v 91 25
v 92 11
v 93 4
v 94 25
v 95 7
v 96 27
v 97 12
v 98 0
v 99 27
v 100 13
v 101 26
v 102 12
v 103 12
v 104 13
v 105 12
v 106 13
v 107 18
v 108 24
v 109 24
v 110 16
v 111 8
v 112 7
v 113 12
v 114 2
v 115 1
v 116 24
v 117 25
v 118 24
v 119 4
v 120 24
v 121 13
v 122 24
v 123 24
v 124 7
v 125 25
v 126 13
v 127 30
v 128 15
v 129 24
v 130 14
v 131 13
v 132 10
v 133 7
v 134 12
v 135 8
v 136 24
v 137 22
v 138 20
v 139 15
v 140 14
v 141 24
v 142 24
v 143 24
v 144 24
v 145 28
v 146 12
v 147 15
v 148 15
v 149 12
v 150 30
v 151 12
v 152 17
v 153 8
v 154 27
v 155 15
v 156 24
v 157 24
v 158 25
v 159 24
v 160 24
v 161 14
v 162 22
v 163 22
v 164 17
v 165 24
v 166 9
v 167 22
v 168 24
v 169 24
v 170 25
v 171 25
v 172 25
v 173 27
v 174 27
v 175 25
v 176 24
v 177 24
v 178 20
v 179 20
v 180 20
v 181 20
v 182 15
v 183 3
v 184 9
v 185 22
v 186 25
v 187 24
v 188 14
v 189 27
v 190 27
v 191 30
v 192 27
v 193 27
v 194 30
v 195 24
v 196 30
v 197 22
v 198 21
v 199 27
v 200 25
v 201 24
v 202 25
v 203 14
v 204 10
v 205 30
v 206 12
